c scpcyc07
p wcnf 448 1120 449
449 2 4 3 1 0
449 5 7 6 1 0
449 5 9 8 2 0
449 13 15 14 1 0
449 13 17 16 2 0
449 13 22 21 5 0
449 33 35 34 1 0
449 33 37 36 2 0
449 33 42 41 5 0
449 33 54 53 13 0
449 81 83 82 1 0
449 81 85 84 2 0
449 81 90 89 5 0
449 81 102 101 13 0
449 81 130 129 33 0
449 193 195 194 1 0
449 193 197 196 2 0
449 193 202 201 5 0
449 193 214 213 13 0
449 193 242 241 33 0
449 193 306 305 81 0
449 6 11 10 3 0
449 14 19 18 3 0
449 14 24 23 6 0
449 34 39 38 3 0
449 34 44 43 6 0
449 34 56 55 14 0
449 82 87 86 3 0
449 82 92 91 6 0
449 82 104 103 14 0
449 82 132 131 34 0
449 194 199 198 3 0
449 194 204 203 6 0
449 194 216 215 14 0
449 194 244 243 34 0
449 194 308 307 82 0
449 8 12 10 4 0
449 16 20 18 4 0
449 16 27 26 8 0
449 36 40 38 4 0
449 36 47 46 8 0
449 36 59 58 16 0
449 84 88 86 4 0
449 84 95 94 8 0
449 84 107 106 16 0
449 84 135 134 36 0
449 196 200 198 4 0
449 196 207 206 8 0
449 196 219 218 16 0
449 196 247 246 36 0
449 196 311 310 84 0
449 18 30 29 10 0
449 38 50 49 10 0
449 38 62 61 18 0
449 86 98 97 10 0
449 86 110 109 18 0
449 86 138 137 38 0
449 198 210 209 10 0
449 198 222 221 18 0
449 198 250 249 38 0
449 198 314 313 86 0
449 9 12 11 7 0
449 21 25 23 7 0
449 21 28 26 9 0
449 41 45 43 7 0
449 41 48 46 9 0
449 41 66 65 21 0
449 89 93 91 7 0
449 89 96 94 9 0
449 89 114 113 21 0
449 89 142 141 41 0
449 201 205 203 7 0
449 201 208 206 9 0
449 201 226 225 21 0
449 201 254 253 41 0
449 201 318 317 89 0
449 23 31 29 11 0
449 43 51 49 11 0
449 43 69 68 23 0
449 91 99 97 11 0
449 91 117 116 23 0
449 91 145 144 43 0
449 203 211 209 11 0
449 203 229 228 23 0
449 203 257 256 43 0
449 203 321 320 91 0
449 26 32 29 12 0
449 46 52 49 12 0
449 46 73 72 26 0
449 94 100 97 12 0
449 94 121 120 26 0
449 94 149 148 46 0
449 206 212 209 12 0
449 206 233 232 26 0
449 206 261 260 46 0
449 206 325 324 94 0
449 49 77 76 29 0
449 97 125 124 29 0
449 97 153 152 49 0
449 209 237 236 29 0
449 209 265 264 49 0
449 209 329 328 97 0
449 17 20 19 15 0
449 22 25 24 15 0
449 22 28 27 17 0
449 53 57 55 15 0
449 53 60 58 17 0
449 53 67 65 22 0
449 101 105 103 15 0
449 101 108 106 17 0
449 101 115 113 22 0
449 101 158 157 53 0
449 213 217 215 15 0
449 213 220 218 17 0
449 213 227 225 22 0
449 213 270 269 53 0
449 213 334 333 101 0
449 24 31 30 19 0
449 55 63 61 19 0
449 55 70 68 24 0
449 103 111 109 19 0
449 103 118 116 24 0
449 103 161 160 55 0
449 215 223 221 19 0
449 215 230 228 24 0
449 215 273 272 55 0
449 215 337 336 103 0
449 27 32 30 20 0
449 58 64 61 20 0
449 58 74 72 27 0
449 106 112 109 20 0
449 106 122 120 27 0
449 106 165 164 58 0
449 218 224 221 20 0
449 218 234 232 27 0
449 218 277 276 58 0
449 218 341 340 106 0
449 61 78 76 30 0
449 109 126 124 30 0
449 109 169 168 61 0
449 221 238 236 30 0
449 221 281 280 61 0
449 221 345 344 109 0
449 28 32 31 25 0
449 65 71 68 25 0
449 65 75 72 28 0
449 113 119 116 25 0
449 113 123 120 28 0
449 113 174 173 65 0
449 225 231 228 25 0
449 225 235 232 28 0
449 225 286 285 65 0
449 225 350 349 113 0
449 68 79 76 31 0
449 116 127 124 31 0
449 116 178 177 68 0
449 228 239 236 31 0
449 228 290 289 68 0
449 228 354 353 116 0
449 72 80 76 32 0
449 120 128 124 32 0
449 120 183 182 72 0
449 232 240 236 32 0
449 232 295 294 72 0
449 232 359 358 120 0
449 124 188 187 76 0
449 236 300 299 76 0
449 236 364 363 124 0
449 37 40 39 35 0
449 42 45 44 35 0
449 42 48 47 37 0
449 54 57 56 35 0
449 54 60 59 37 0
449 54 67 66 42 0
449 129 133 131 35 0
449 129 136 134 37 0
449 129 143 141 42 0
449 129 159 157 54 0
449 241 245 243 35 0
449 241 248 246 37 0
449 241 255 253 42 0
449 241 271 269 54 0
449 241 370 369 129 0
449 44 51 50 39 0
449 56 63 62 39 0
449 56 70 69 44 0
449 131 139 137 39 0
449 131 146 144 44 0
449 131 162 160 56 0
449 243 251 249 39 0
449 243 258 256 44 0
449 243 274 272 56 0
449 243 373 372 131 0
449 47 52 50 40 0
449 59 64 62 40 0
449 59 74 73 47 0
449 134 140 137 40 0
449 134 150 148 47 0
449 134 166 164 59 0
449 246 252 249 40 0
449 246 262 260 47 0
449 246 278 276 59 0
449 246 377 376 134 0
449 62 78 77 50 0
449 137 154 152 50 0
449 137 170 168 62 0
449 249 266 264 50 0
449 249 282 280 62 0
449 249 381 380 137 0
449 48 52 51 45 0
449 66 71 69 45 0
449 66 75 73 48 0
449 141 147 144 45 0
449 141 151 148 48 0
449 141 175 173 66 0
449 253 259 256 45 0
449 253 263 260 48 0
449 253 287 285 66 0
449 253 386 385 141 0
449 69 79 77 51 0
449 144 155 152 51 0
449 144 179 177 69 0
449 256 267 264 51 0
449 256 291 289 69 0
449 256 390 389 144 0
449 73 80 77 52 0
449 148 156 152 52 0
449 148 184 182 73 0
449 260 268 264 52 0
449 260 296 294 73 0
449 260 395 394 148 0
449 152 189 187 77 0
449 264 301 299 77 0
449 264 400 399 152 0
449 60 64 63 57 0
449 67 71 70 57 0
449 67 75 74 60 0
449 157 163 160 57 0
449 157 167 164 60 0
449 157 176 173 67 0
449 269 275 272 57 0
449 269 279 276 60 0
449 269 288 285 67 0
449 269 406 405 157 0
449 70 79 78 63 0
449 160 171 168 63 0
449 160 180 177 70 0
449 272 283 280 63 0
449 272 292 289 70 0
449 272 410 409 160 0
449 74 80 78 64 0
449 164 172 168 64 0
449 164 185 182 74 0
449 276 284 280 64 0
449 276 297 294 74 0
449 276 415 414 164 0
449 168 190 187 78 0
449 280 302 299 78 0
449 280 420 419 168 0
449 75 80 79 71 0
449 173 181 177 71 0
449 173 186 182 75 0
449 285 293 289 71 0
449 285 298 294 75 0
449 285 426 425 173 0
449 177 191 187 79 0
449 289 303 299 79 0
449 289 431 430 177 0
449 182 192 187 80 0
449 294 304 299 80 0
449 294 437 436 182 0
449 299 443 442 187 0
449 85 88 87 83 0
449 90 93 92 83 0
449 90 96 95 85 0
449 102 105 104 83 0
449 102 108 107 85 0
449 102 115 114 90 0
449 130 133 132 83 0
449 130 136 135 85 0
449 130 143 142 90 0
449 130 159 158 102 0
449 305 309 307 83 0
449 305 312 310 85 0
449 305 319 317 90 0
449 305 335 333 102 0
449 305 371 369 130 0
449 92 99 98 87 0
449 104 111 110 87 0
449 104 118 117 92 0
449 132 139 138 87 0
449 132 146 145 92 0
449 132 162 161 104 0
449 307 315 313 87 0
449 307 322 320 92 0
449 307 338 336 104 0
449 307 374 372 132 0
449 95 100 98 88 0
449 107 112 110 88 0
449 107 122 121 95 0
449 135 140 138 88 0
449 135 150 149 95 0
449 135 166 165 107 0
449 310 316 313 88 0
449 310 326 324 95 0
449 310 342 340 107 0
449 310 378 376 135 0
449 110 126 125 98 0
449 138 154 153 98 0
449 138 170 169 110 0
449 313 330 328 98 0
449 313 346 344 110 0
449 313 382 380 138 0
449 96 100 99 93 0
449 114 119 117 93 0
449 114 123 121 96 0
449 142 147 145 93 0
449 142 151 149 96 0
449 142 175 174 114 0
449 317 323 320 93 0
449 317 327 324 96 0
449 317 351 349 114 0
449 317 387 385 142 0
449 117 127 125 99 0
449 145 155 153 99 0
449 145 179 178 117 0
449 320 331 328 99 0
449 320 355 353 117 0
449 320 391 389 145 0
449 121 128 125 100 0
449 149 156 153 100 0
449 149 184 183 121 0
449 324 332 328 100 0
449 324 360 358 121 0
449 324 396 394 149 0
449 153 189 188 125 0
449 328 365 363 125 0
449 328 401 399 153 0
449 108 112 111 105 0
449 115 119 118 105 0
449 115 123 122 108 0
449 158 163 161 105 0
449 158 167 165 108 0
449 158 176 174 115 0
449 333 339 336 105 0
449 333 343 340 108 0
449 333 352 349 115 0
449 333 407 405 158 0
449 118 127 126 111 0
449 161 171 169 111 0
449 161 180 178 118 0
449 336 347 344 111 0
449 336 356 353 118 0
449 336 411 409 161 0
449 122 128 126 112 0
449 165 172 169 112 0
449 165 185 183 122 0
449 340 348 344 112 0
449 340 361 358 122 0
449 340 416 414 165 0
449 169 190 188 126 0
449 344 366 363 126 0
449 344 421 419 169 0
449 123 128 127 119 0
449 174 181 178 119 0
449 174 186 183 123 0
449 349 357 353 119 0
449 349 362 358 123 0
449 349 427 425 174 0
449 178 191 188 127 0
449 353 367 363 127 0
449 353 432 430 178 0
449 183 192 188 128 0
449 358 368 363 128 0
449 358 438 436 183 0
449 363 444 442 188 0
449 136 140 139 133 0
449 143 147 146 133 0
449 143 151 150 136 0
449 159 163 162 133 0
449 159 167 166 136 0
449 159 176 175 143 0
449 369 375 372 133 0
449 369 379 376 136 0
449 369 388 385 143 0
449 369 408 405 159 0
449 146 155 154 139 0
449 162 171 170 139 0
449 162 180 179 146 0
449 372 383 380 139 0
449 372 392 389 146 0
449 372 412 409 162 0
449 150 156 154 140 0
449 166 172 170 140 0
449 166 185 184 150 0
449 376 384 380 140 0
449 376 397 394 150 0
449 376 417 414 166 0
449 170 190 189 154 0
449 380 402 399 154 0
449 380 422 419 170 0
449 151 156 155 147 0
449 175 181 179 147 0
449 175 186 184 151 0
449 385 393 389 147 0
449 385 398 394 151 0
449 385 428 425 175 0
449 179 191 189 155 0
449 389 403 399 155 0
449 389 433 430 179 0
449 184 192 189 156 0
449 394 404 399 156 0
449 394 439 436 184 0
449 399 445 442 189 0
449 167 172 171 163 0
449 176 181 180 163 0
449 176 186 185 167 0
449 405 413 409 163 0
449 405 418 414 167 0
449 405 429 425 176 0
449 180 191 190 171 0
449 409 423 419 171 0
449 409 434 430 180 0
449 185 192 190 172 0
449 414 424 419 172 0
449 414 440 436 185 0
449 419 446 442 190 0
449 186 192 191 181 0
449 425 435 430 181 0
449 425 441 436 186 0
449 430 447 442 191 0
449 436 448 442 192 0
449 197 200 199 195 0
449 202 205 204 195 0
449 202 208 207 197 0
449 214 217 216 195 0
449 214 220 219 197 0
449 214 227 226 202 0
449 242 245 244 195 0
449 242 248 247 197 0
449 242 255 254 202 0
449 242 271 270 214 0
449 306 309 308 195 0
449 306 312 311 197 0
449 306 319 318 202 0
449 306 335 334 214 0
449 306 371 370 242 0
449 204 211 210 199 0
449 216 223 222 199 0
449 216 230 229 204 0
449 244 251 250 199 0
449 244 258 257 204 0
449 244 274 273 216 0
449 308 315 314 199 0
449 308 322 321 204 0
449 308 338 337 216 0
449 308 374 373 244 0
449 207 212 210 200 0
449 219 224 222 200 0
449 219 234 233 207 0
449 247 252 250 200 0
449 247 262 261 207 0
449 247 278 277 219 0
449 311 316 314 200 0
449 311 326 325 207 0
449 311 342 341 219 0
449 311 378 377 247 0
449 222 238 237 210 0
449 250 266 265 210 0
449 250 282 281 222 0
449 314 330 329 210 0
449 314 346 345 222 0
449 314 382 381 250 0
449 208 212 211 205 0
449 226 231 229 205 0
449 226 235 233 208 0
449 254 259 257 205 0
449 254 263 261 208 0
449 254 287 286 226 0
449 318 323 321 205 0
449 318 327 325 208 0
449 318 351 350 226 0
449 318 387 386 254 0
449 229 239 237 211 0
449 257 267 265 211 0
449 257 291 290 229 0
449 321 331 329 211 0
449 321 355 354 229 0
449 321 391 390 257 0
449 233 240 237 212 0
449 261 268 265 212 0
449 261 296 295 233 0
449 325 332 329 212 0
449 325 360 359 233 0
449 325 396 395 261 0
449 265 301 300 237 0
449 329 365 364 237 0
449 329 401 400 265 0
449 220 224 223 217 0
449 227 231 230 217 0
449 227 235 234 220 0
449 270 275 273 217 0
449 270 279 277 220 0
449 270 288 286 227 0
449 334 339 337 217 0
449 334 343 341 220 0
449 334 352 350 227 0
449 334 407 406 270 0
449 230 239 238 223 0
449 273 283 281 223 0
449 273 292 290 230 0
449 337 347 345 223 0
449 337 356 354 230 0
449 337 411 410 273 0
449 234 240 238 224 0
449 277 284 281 224 0
449 277 297 295 234 0
449 341 348 345 224 0
449 341 361 359 234 0
449 341 416 415 277 0
449 281 302 300 238 0
449 345 366 364 238 0
449 345 421 420 281 0
449 235 240 239 231 0
449 286 293 290 231 0
449 286 298 295 235 0
449 350 357 354 231 0
449 350 362 359 235 0
449 350 427 426 286 0
449 290 303 300 239 0
449 354 367 364 239 0
449 354 432 431 290 0
449 295 304 300 240 0
449 359 368 364 240 0
449 359 438 437 295 0
449 364 444 443 300 0
449 248 252 251 245 0
449 255 259 258 245 0
449 255 263 262 248 0
449 271 275 274 245 0
449 271 279 278 248 0
449 271 288 287 255 0
449 370 375 373 245 0
449 370 379 377 248 0
449 370 388 386 255 0
449 370 408 406 271 0
449 258 267 266 251 0
449 274 283 282 251 0
449 274 292 291 258 0
449 373 383 381 251 0
449 373 392 390 258 0
449 373 412 410 274 0
449 262 268 266 252 0
449 278 284 282 252 0
449 278 297 296 262 0
449 377 384 381 252 0
449 377 397 395 262 0
449 377 417 415 278 0
449 282 302 301 266 0
449 381 402 400 266 0
449 381 422 420 282 0
449 263 268 267 259 0
449 287 293 291 259 0
449 287 298 296 263 0
449 386 393 390 259 0
449 386 398 395 263 0
449 386 428 426 287 0
449 291 303 301 267 0
449 390 403 400 267 0
449 390 433 431 291 0
449 296 304 301 268 0
449 395 404 400 268 0
449 395 439 437 296 0
449 400 445 443 301 0
449 279 284 283 275 0
449 288 293 292 275 0
449 288 298 297 279 0
449 406 413 410 275 0
449 406 418 415 279 0
449 406 429 426 288 0
449 292 303 302 283 0
449 410 423 420 283 0
449 410 434 431 292 0
449 297 304 302 284 0
449 415 424 420 284 0
449 415 440 437 297 0
449 420 446 443 302 0
449 298 304 303 293 0
449 426 435 431 293 0
449 426 441 437 298 0
449 431 447 443 303 0
449 437 448 443 304 0
449 312 316 315 309 0
449 319 323 322 309 0
449 319 327 326 312 0
449 335 339 338 309 0
449 335 343 342 312 0
449 335 352 351 319 0
449 371 375 374 309 0
449 371 379 378 312 0
449 371 388 387 319 0
449 371 408 407 335 0
449 322 331 330 315 0
449 338 347 346 315 0
449 338 356 355 322 0
449 374 383 382 315 0
449 374 392 391 322 0
449 374 412 411 338 0
449 326 332 330 316 0
449 342 348 346 316 0
449 342 361 360 326 0
449 378 384 382 316 0
449 378 397 396 326 0
449 378 417 416 342 0
449 346 366 365 330 0
449 382 402 401 330 0
449 382 422 421 346 0
449 327 332 331 323 0
449 351 357 355 323 0
449 351 362 360 327 0
449 387 393 391 323 0
449 387 398 396 327 0
449 387 428 427 351 0
449 355 367 365 331 0
449 391 403 401 331 0
449 391 433 432 355 0
449 360 368 365 332 0
449 396 404 401 332 0
449 396 439 438 360 0
449 401 445 444 365 0
449 343 348 347 339 0
449 352 357 356 339 0
449 352 362 361 343 0
449 407 413 411 339 0
449 407 418 416 343 0
449 407 429 427 352 0
449 356 367 366 347 0
449 411 423 421 347 0
449 411 434 432 356 0
449 361 368 366 348 0
449 416 424 421 348 0
449 416 440 438 361 0
449 421 446 444 366 0
449 362 368 367 357 0
449 427 435 432 357 0
449 427 441 438 362 0
449 432 447 444 367 0
449 438 448 444 368 0
449 379 384 383 375 0
449 388 393 392 375 0
449 388 398 397 379 0
449 408 413 412 375 0
449 408 418 417 379 0
449 408 429 428 388 0
449 392 403 402 383 0
449 412 423 422 383 0
449 412 434 433 392 0
449 397 404 402 384 0
449 417 424 422 384 0
449 417 440 439 397 0
449 422 446 445 402 0
449 398 404 403 393 0
449 428 435 433 393 0
449 428 441 439 398 0
449 433 447 445 403 0
449 439 448 445 404 0
449 418 424 423 413 0
449 429 435 434 413 0
449 429 441 440 418 0
449 434 447 446 423 0
449 440 448 446 424 0
449 441 448 447 435 0
1 0 0
1 -1 0
1 -2 0
1 -3 0
1 -4 0
1 -5 0
1 -6 0
1 -7 0
1 -8 0
1 -9 0
1 -10 0
1 -11 0
1 -12 0
1 -13 0
1 -14 0
1 -15 0
1 -16 0
1 -17 0
1 -18 0
1 -19 0
1 -20 0
1 -21 0
1 -22 0
1 -23 0
1 -24 0
1 -25 0
1 -26 0
1 -27 0
1 -28 0
1 -29 0
1 -30 0
1 -31 0
1 -32 0
1 -33 0
1 -34 0
1 -35 0
1 -36 0
1 -37 0
1 -38 0
1 -39 0
1 -40 0
1 -41 0
1 -42 0
1 -43 0
1 -44 0
1 -45 0
1 -46 0
1 -47 0
1 -48 0
1 -49 0
1 -50 0
1 -51 0
1 -52 0
1 -53 0
1 -54 0
1 -55 0
1 -56 0
1 -57 0
1 -58 0
1 -59 0
1 -60 0
1 -61 0
1 -62 0
1 -63 0
1 -64 0
1 -65 0
1 -66 0
1 -67 0
1 -68 0
1 -69 0
1 -70 0
1 -71 0
1 -72 0
1 -73 0
1 -74 0
1 -75 0
1 -76 0
1 -77 0
1 -78 0
1 -79 0
1 -80 0
1 -81 0
1 -82 0
1 -83 0
1 -84 0
1 -85 0
1 -86 0
1 -87 0
1 -88 0
1 -89 0
1 -90 0
1 -91 0
1 -92 0
1 -93 0
1 -94 0
1 -95 0
1 -96 0
1 -97 0
1 -98 0
1 -99 0
1 -100 0
1 -101 0
1 -102 0
1 -103 0
1 -104 0
1 -105 0
1 -106 0
1 -107 0
1 -108 0
1 -109 0
1 -110 0
1 -111 0
1 -112 0
1 -113 0
1 -114 0
1 -115 0
1 -116 0
1 -117 0
1 -118 0
1 -119 0
1 -120 0
1 -121 0
1 -122 0
1 -123 0
1 -124 0
1 -125 0
1 -126 0
1 -127 0
1 -128 0
1 -129 0
1 -130 0
1 -131 0
1 -132 0
1 -133 0
1 -134 0
1 -135 0
1 -136 0
1 -137 0
1 -138 0
1 -139 0
1 -140 0
1 -141 0
1 -142 0
1 -143 0
1 -144 0
1 -145 0
1 -146 0
1 -147 0
1 -148 0
1 -149 0
1 -150 0
1 -151 0
1 -152 0
1 -153 0
1 -154 0
1 -155 0
1 -156 0
1 -157 0
1 -158 0
1 -159 0
1 -160 0
1 -161 0
1 -162 0
1 -163 0
1 -164 0
1 -165 0
1 -166 0
1 -167 0
1 -168 0
1 -169 0
1 -170 0
1 -171 0
1 -172 0
1 -173 0
1 -174 0
1 -175 0
1 -176 0
1 -177 0
1 -178 0
1 -179 0
1 -180 0
1 -181 0
1 -182 0
1 -183 0
1 -184 0
1 -185 0
1 -186 0
1 -187 0
1 -188 0
1 -189 0
1 -190 0
1 -191 0
1 -192 0
1 -193 0
1 -194 0
1 -195 0
1 -196 0
1 -197 0
1 -198 0
1 -199 0
1 -200 0
1 -201 0
1 -202 0
1 -203 0
1 -204 0
1 -205 0
1 -206 0
1 -207 0
1 -208 0
1 -209 0
1 -210 0
1 -211 0
1 -212 0
1 -213 0
1 -214 0
1 -215 0
1 -216 0
1 -217 0
1 -218 0
1 -219 0
1 -220 0
1 -221 0
1 -222 0
1 -223 0
1 -224 0
1 -225 0
1 -226 0
1 -227 0
1 -228 0
1 -229 0
1 -230 0
1 -231 0
1 -232 0
1 -233 0
1 -234 0
1 -235 0
1 -236 0
1 -237 0
1 -238 0
1 -239 0
1 -240 0
1 -241 0
1 -242 0
1 -243 0
1 -244 0
1 -245 0
1 -246 0
1 -247 0
1 -248 0
1 -249 0
1 -250 0
1 -251 0
1 -252 0
1 -253 0
1 -254 0
1 -255 0
1 -256 0
1 -257 0
1 -258 0
1 -259 0
1 -260 0
1 -261 0
1 -262 0
1 -263 0
1 -264 0
1 -265 0
1 -266 0
1 -267 0
1 -268 0
1 -269 0
1 -270 0
1 -271 0
1 -272 0
1 -273 0
1 -274 0
1 -275 0
1 -276 0
1 -277 0
1 -278 0
1 -279 0
1 -280 0
1 -281 0
1 -282 0
1 -283 0
1 -284 0
1 -285 0
1 -286 0
1 -287 0
1 -288 0
1 -289 0
1 -290 0
1 -291 0
1 -292 0
1 -293 0
1 -294 0
1 -295 0
1 -296 0
1 -297 0
1 -298 0
1 -299 0
1 -300 0
1 -301 0
1 -302 0
1 -303 0
1 -304 0
1 -305 0
1 -306 0
1 -307 0
1 -308 0
1 -309 0
1 -310 0
1 -311 0
1 -312 0
1 -313 0
1 -314 0
1 -315 0
1 -316 0
1 -317 0
1 -318 0
1 -319 0
1 -320 0
1 -321 0
1 -322 0
1 -323 0
1 -324 0
1 -325 0
1 -326 0
1 -327 0
1 -328 0
1 -329 0
1 -330 0
1 -331 0
1 -332 0
1 -333 0
1 -334 0
1 -335 0
1 -336 0
1 -337 0
1 -338 0
1 -339 0
1 -340 0
1 -341 0
1 -342 0
1 -343 0
1 -344 0
1 -345 0
1 -346 0
1 -347 0
1 -348 0
1 -349 0
1 -350 0
1 -351 0
1 -352 0
1 -353 0
1 -354 0
1 -355 0
1 -356 0
1 -357 0
1 -358 0
1 -359 0
1 -360 0
1 -361 0
1 -362 0
1 -363 0
1 -364 0
1 -365 0
1 -366 0
1 -367 0
1 -368 0
1 -369 0
1 -370 0
1 -371 0
1 -372 0
1 -373 0
1 -374 0
1 -375 0
1 -376 0
1 -377 0
1 -378 0
1 -379 0
1 -380 0
1 -381 0
1 -382 0
1 -383 0
1 -384 0
1 -385 0
1 -386 0
1 -387 0
1 -388 0
1 -389 0
1 -390 0
1 -391 0
1 -392 0
1 -393 0
1 -394 0
1 -395 0
1 -396 0
1 -397 0
1 -398 0
1 -399 0
1 -400 0
1 -401 0
1 -402 0
1 -403 0
1 -404 0
1 -405 0
1 -406 0
1 -407 0
1 -408 0
1 -409 0
1 -410 0
1 -411 0
1 -412 0
1 -413 0
1 -414 0
1 -415 0
1 -416 0
1 -417 0
1 -418 0
1 -419 0
1 -420 0
1 -421 0
1 -422 0
1 -423 0
1 -424 0
1 -425 0
1 -426 0
1 -427 0
1 -428 0
1 -429 0
1 -430 0
1 -431 0
1 -432 0
1 -433 0
1 -434 0
1 -435 0
1 -436 0
1 -437 0
1 -438 0
1 -439 0
1 -440 0
1 -441 0
1 -442 0
1 -443 0
1 -444 0
1 -445 0
1 -446 0
1 -447 0
